
;this file is automatically generated: Tue Oct 27 10:34:59 CST 2020

;declarations generated

(declare-fun oclExcludes ( Int Int) Bool)
(declare-fun type_4a282c37_37dc_43ab_9087_3850171791aa_Class8 ( Int) Bool)
(declare-fun Cardinality ( Int) Int)
(declare-fun class13_Class13BoolAttr0 ( Int) Bool)
(declare-fun oclSelect ( Int Bool) Int)
(declare-fun Enum0 ( Int) Int)
(declare-fun Enum1 ( Int) Int)
(declare-fun Enum2 ( Int) Int)
(declare-fun type_4a282c37_37dc_43ab_9087_3850171791aa_Class23 ( Int) Bool)
(declare-fun type_4a282c37_37dc_43ab_9087_3850171791aa_Class24 ( Int) Bool)
(declare-fun type_4a282c37_37dc_43ab_9087_3850171791aa_Class27 ( Int) Bool)
(declare-fun type_4a282c37_37dc_43ab_9087_3850171791aa_Class28 ( Int) Bool)
(declare-fun container_ ( Int) Int)
(declare-fun obj_08c07d11_8f3c_4ea4_93da_ceea7b3959d4 ( Int) Int)
(declare-fun oclIncludes ( Int Int) Bool)
(declare-fun type_4a282c37_37dc_43ab_9087_3850171791aa_Class13 ( Int) Bool)
(declare-fun ObjAt ( Int Int) Int)

;formula(s) generated
(assert (! (forall ((v Int)) (=> (and (and (and (and (and ( type_4a282c37_37dc_43ab_9087_3850171791aa_Class13 v )  ( type_4a282c37_37dc_43ab_9087_3850171791aa_Class23 v ) ) ( type_4a282c37_37dc_43ab_9087_3850171791aa_Class24 v ) ) ( type_4a282c37_37dc_43ab_9087_3850171791aa_Class27 v ) ) ( type_4a282c37_37dc_43ab_9087_3850171791aa_Class8 v ) ) ( type_4a282c37_37dc_43ab_9087_3850171791aa_Class28 v ) ) ( class13_Class13BoolAttr0 ( obj_08c07d11_8f3c_4ea4_93da_ceea7b3959d4 v )  ) )):named l0))
(assert (exists ((o Int)) (and (and (and (and (and ( type_4a282c37_37dc_43ab_9087_3850171791aa_Class13 ( obj_08c07d11_8f3c_4ea4_93da_ceea7b3959d4 o )  )  ( type_4a282c37_37dc_43ab_9087_3850171791aa_Class23 ( obj_08c07d11_8f3c_4ea4_93da_ceea7b3959d4 o )  ) ) ( type_4a282c37_37dc_43ab_9087_3850171791aa_Class24 ( obj_08c07d11_8f3c_4ea4_93da_ceea7b3959d4 o )  ) ) ( type_4a282c37_37dc_43ab_9087_3850171791aa_Class27 ( obj_08c07d11_8f3c_4ea4_93da_ceea7b3959d4 o )  ) ) ( type_4a282c37_37dc_43ab_9087_3850171791aa_Class8 ( obj_08c07d11_8f3c_4ea4_93da_ceea7b3959d4 o )  ) ) ( type_4a282c37_37dc_43ab_9087_3850171791aa_Class28 ( obj_08c07d11_8f3c_4ea4_93da_ceea7b3959d4 o )  ) )))

 ;end of formula 